words_hard_train/78.qaiger
aag 117 15 0 1 102
2
4
8
14
24
38
54
62
76
92
104
118
188
196
216
234
6 3 5
10 9 4
12 7 11
16 15 8
18 2 4
20 16 19
22 12 21
26 5 24
28 4 25
30 27 29
32 30 11
34 28 9
36 33 35
40 37 39
42 36 38
44 41 43
46 22 44
48 47 43
50 29 25
52 35 51
56 53 55
58 52 54
60 57 59
64 61 63
66 60 62
68 65 67
70 49 68
72 71 67
74 50 55
78 75 76
80 74 77
82 79 81
84 34 55
86 83 85
88 82 84
90 87 89
94 91 93
96 90 92
98 95 97
100 73 98
102 101 97
106 81 104
108 80 105
110 107 109
112 111 89
114 110 88
116 113 115
120 117 119
122 116 118
124 121 123
126 102 125
128 103 124
130 127 129
132 131 104
134 130 105
136 133 135
138 23 45
140 139 47
142 140 25
144 141 24
146 143 145
148 3 9
150 2 8
152 149 151
154 152 15
156 48 69
158 157 71
160 158 55
162 154 161
164 146 162
166 72 99
168 167 101
170 168 77
172 164 171
174 159 54
176 169 76
178 175 177
180 172 178
182 136 180
184 129 123
186 115 109
190 186 188
192 187 189
194 191 193
198 195 197
200 194 196
202 199 201
204 184 203
206 185 202
208 205 207
210 208 189
212 209 188
214 211 213
218 193 216
220 192 217
222 219 221
224 207 201
226 222 225
228 223 224
230 227 229
232 214 231
234 182 232
i0 2 y2[1]
i1 1 x1[1]
i2 1 x1[0]
i3 2 y2[0]
i4 1 x1[2]
i5 2 y2[2]
i6 1 x1[3]
i7 2 y2[3]
i8 1 x1[4]
i9 2 y2[4]
i10 1 x1[5]
i11 2 y2[5]
i12 1 x1[6]
i13 2 y2[6]
i14 2 y2[7]
o0 bool[0]
c
simplified
  ==
    subtract
      2 y2
      add
        invert
          1
        1 x1
    1 x1
