words_hard_train/78.qaiger.qdimacs
p cnf 117 307
a 2 4 38 12 52 27 94 0
e 1 3 5 6 7 8 9 10 11 13 14 15 16 17 18 19 20 21 22 23 24 25 26 28 29 30 31 32 33 34 35 36 37 39 40 41 42 43 44 45 46 47 48 49 50 51 53 54 55 56 57 58 59 60 61 62 63 64 65 66 67 68 69 70 71 72 73 74 75 76 77 78 79 80 81 82 83 84 85 86 87 88 89 90 91 92 93 95 96 97 98 99 100 101 102 103 104 105 106 107 108 109 110 111 112 113 114 115 116 117 0
1 2 3 0
-1 -3 0
-2 -3 0
4 -2 5 0
-4 -5 0
2 -5 0
3 5 6 0
-3 -6 0
-5 -6 0
7 -4 8 0
-7 -8 0
4 -8 0
-1 -2 9 0
1 -9 0
2 -9 0
-8 9 10 0
8 -10 0
-9 -10 0
-6 10 11 0
6 -11 0
-10 -11 0
2 -12 13 0
-2 -13 0
12 -13 0
-2 12 14 0
2 -14 0
-12 -14 0
13 14 15 0
-13 -15 0
-14 -15 0
-15 5 16 0
15 -16 0
-5 -16 0
-14 4 17 0
14 -17 0
-4 -17 0
16 17 18 0
-16 -18 0
-17 -18 0
18 19 20 0
-18 -20 0
-19 -20 0
-18 -19 21 0
18 -21 0
19 -21 0
20 21 22 0
-20 -22 0
-21 -22 0
-11 -22 23 0
11 -23 0
22 -23 0
23 21 24 0
-23 -24 0
-21 -24 0
14 12 25 0
-14 -25 0
-12 -25 0
17 25 26 0
-17 -26 0
-25 -26 0
26 27 28 0
-26 -28 0
-27 -28 0
-26 -27 29 0
26 -29 0
27 -29 0
28 29 30 0
-28 -30 0
-29 -30 0
30 31 32 0
-30 -32 0
-31 -32 0
-30 -31 33 0
30 -33 0
31 -33 0
32 33 34 0
-32 -34 0
-33 -34 0
24 -34 35 0
-24 -35 0
34 -35 0
35 33 36 0
-35 -36 0
-33 -36 0
-25 27 37 0
25 -37 0
-27 -37 0
37 -38 39 0
-37 -39 0
38 -39 0
-37 38 40 0
37 -40 0
-38 -40 0
39 40 41 0
-39 -41 0
-40 -41 0
-17 27 42 0
17 -42 0
-27 -42 0
41 42 43 0
-41 -43 0
-42 -43 0
-41 -42 44 0
41 -44 0
42 -44 0
43 44 45 0
-43 -45 0
-44 -45 0
45 46 47 0
-45 -47 0
-46 -47 0
-45 -46 48 0
45 -48 0
46 -48 0
47 48 49 0
-47 -49 0
-48 -49 0
36 -49 50 0
-36 -50 0
49 -50 0
50 48 51 0
-50 -51 0
-48 -51 0
40 -52 53 0
-40 -53 0
52 -53 0
-40 52 54 0
40 -54 0
-52 -54 0
53 54 55 0
-53 -55 0
-54 -55 0
55 44 56 0
-55 -56 0
-44 -56 0
-55 -44 57 0
55 -57 0
44 -57 0
56 57 58 0
-56 -58 0
-57 -58 0
58 59 60 0
-58 -60 0
-59 -60 0
-58 -59 61 0
58 -61 0
59 -61 0
60 61 62 0
-60 -62 0
-61 -62 0
-51 62 63 0
51 -63 0
-62 -63 0
51 -62 64 0
-51 -64 0
62 -64 0
63 64 65 0
-63 -65 0
-64 -65 0
65 -52 66 0
-65 -66 0
52 -66 0
-65 52 67 0
65 -67 0
-52 -67 0
66 67 68 0
-66 -68 0
-67 -68 0
11 22 69 0
-11 -69 0
-22 -69 0
69 23 70 0
-69 -70 0
-23 -70 0
-70 12 71 0
70 -71 0
-12 -71 0
70 -12 72 0
-70 -72 0
12 -72 0
71 72 73 0
-71 -73 0
-72 -73 0
1 4 74 0
-1 -74 0
-4 -74 0
-1 -4 75 0
1 -75 0
4 -75 0
74 75 76 0
-74 -76 0
-75 -76 0
-76 7 77 0
76 -77 0
-7 -77 0
-24 34 78 0
24 -78 0
-34 -78 0
78 35 79 0
-78 -79 0
-35 -79 0
-79 27 80 0
79 -80 0
-27 -80 0
-77 80 81 0
77 -81 0
-80 -81 0
-73 -81 82 0
73 -82 0
81 -82 0
-36 49 83 0
36 -83 0
-49 -83 0
83 50 84 0
-83 -84 0
-50 -84 0
-84 38 85 0
84 -85 0
-38 -85 0
-82 85 86 0
82 -86 0
-85 -86 0
79 -27 87 0
-79 -87 0
27 -87 0
84 -38 88 0
-84 -88 0
38 -88 0
87 88 89 0
-87 -89 0
-88 -89 0
-86 -89 90 0
86 -90 0
89 -90 0
-68 -90 91 0
68 -91 0
90 -91 0
64 61 92 0
-64 -92 0
-61 -92 0
57 54 93 0
-57 -93 0
-54 -93 0
-93 -94 95 0
93 -95 0
94 -95 0
93 94 96 0
-93 -96 0
-94 -96 0
95 96 97 0
-95 -97 0
-96 -97 0
97 98 99 0
-97 -99 0
-98 -99 0
-97 -98 100 0
97 -100 0
98 -100 0
99 100 101 0
-99 -101 0
-100 -101 0
-92 101 102 0
92 -102 0
-101 -102 0
92 -101 103 0
-92 -103 0
101 -103 0
102 103 104 0
-102 -104 0
-103 -104 0
-104 94 105 0
104 -105 0
-94 -105 0
104 -94 106 0
-104 -106 0
94 -106 0
105 106 107 0
-105 -107 0
-106 -107 0
96 -108 109 0
-96 -109 0
108 -109 0
-96 108 110 0
96 -110 0
-108 -110 0
109 110 111 0
-109 -111 0
-110 -111 0
103 100 112 0
-103 -112 0
-100 -112 0
-111 112 113 0
111 -113 0
-112 -113 0
111 -112 114 0
-111 -114 0
112 -114 0
113 114 115 0
-113 -115 0
-114 -115 0
-107 115 116 0
107 -116 0
-115 -116 0
-91 -116 117 0
91 -117 0
116 -117 0
117 0
